k-points along high symmetry lines
20
Line-mode
Rec
  0.5   0.0   0.5  ! X
  0.0   0.0   0.0  ! G
  0.0   0.0   0.0  ! G
  0.5   0.5   0.5  ! L
  0.5   0.5   0.5  ! L
  0.5   0.25  0.75 ! W
  0.5   0.25  0.75 ! W
  0.375 0.375 0.75 ! K
  0.375 0.375 0.75 ! K
  0.0   0.0   0.0  ! G
